32      4       
19      14      14      16      
0       0       0       0       0       8       2       25      26      27      28      29      30      31      
3       1       4       6       1       1       3       
10      1       1       10      9       2       24      4       
4       13      5       5       1       3       23      22      5       
9       1       5       2       1       1       6       
2       2       1       1       1       2       21      7       
7       1       7       6       1       3       20      19      8       
6       7       6       1       4       2       18      9       
3       1       4       5       1       2       17      10      
6       13      1       9       1       1       11      
2       14      3       5       1       1       12      
1       8       2       8       1       1       13      
1       6       4       4       9       1       14      
6       1       1       1       1       1       15      
1       14      4       1       16      1       16      
10      4       2       1       13      1       32      
10      4       1       1       1       1       32      
7       2       1       1       1       1       32      
8       11      3       1       7       1       32      
7       1       5       1       2       1       32      
8       1       1       1       6       1       32      
9       2       8       14      7       1       32      
4       1       10      1       1       1       32      
10      1       1       2       5       1       32      
4       1       7       6       2       1       32      
9       2       4       1       6       1       32      
3       3       5       2       4       1       32      
8       6       2       1       1       1       32      
5       19      1       6       8       1       32      
2       1       5       1       6       1       32      
6       1       1       1       2       1       32      
0       0       0       0       0       0       
